173
0 138 55 153 155 88 44 108 130 116 
92 4 136 152 95 17 41 48 97 76 
151 43 38 29 61 96 162 27 106 28 
163 158 113 111 65 72 67 129 135 131 
124 58 142 99 102 166 157 110 126 69 
103 161 63 144 23 160 20 149 6 150 
66 141 36 98 121 107 118 25 120 11 
105 84 21 85 159 165 39 45 172 14 
164 64 19 47 71 31 50 112 22 59 
89 54 9 40 115 123 117 77 83 16 
156 169 171 7 139 170 122 13 168 10 
114 42 132 2 73 128 8 145 32 49 
86 125 143 119 60 12 56 46 127 70 
68 140 134 53 87 146 167 80 5 37 
100 93 78 62 137 52 18 1 74 82 
51 30 3 33 35 91 26 75 24 90 
34 15 81 147 101 133 154 57 148 109 
79 94 104 
